CPXPARAM_Read_DataCheck                          1
Found incumbent of value 0.000000 after 0.00 sec. (0.05 ticks)
Tried aggregator 1 time.
MIP Presolve eliminated 2 rows and 0 columns.
MIP Presolve modified 1 coefficients.
Reduced MIP has 231 rows, 2010 columns, and 9634 nonzeros.
Reduced MIP has 2010 binaries, 0 generals, 0 SOSs, and 0 indicators.
Presolve time = 0.00 sec. (3.76 ticks)
Probing time = 0.00 sec. (2.92 ticks)
Tried aggregator 1 time.
Reduced MIP has 231 rows, 2010 columns, and 9634 nonzeros.
Reduced MIP has 2010 binaries, 0 generals, 0 SOSs, and 0 indicators.
Presolve time = 0.02 sec. (4.24 ticks)
Probing time = 0.00 sec. (2.85 ticks)
Clique table members: 6877.
MIP emphasis: balance optimality and feasibility.
MIP search method: dynamic search.
Parallel mode: deterministic, using up to 4 threads.
Root relaxation solution time = 0.02 sec. (5.52 ticks)

        Nodes                                         Cuts/
   Node  Left     Objective  IInf  Best Integer    Best Bound    ItCnt     Gap

*     0+    0                            0.0000    12065.0000              --- 
*     0+    0                          607.0000    12065.0000              --- 
      0     0     7110.1100    10      607.0000     7110.1100      401     --- 
*     0+    0                         4524.0000     7110.1100            57.16%
      0     0     7088.0150    10     4524.0000  Cliques: 157      416   56.68%
      0     0     7082.7125    14     4524.0000     Cuts: 157      423   56.56%
*     0+    0                         4606.0000     7082.7125            53.77%
      0     0        cutoff           4606.0000     4606.0000      515    0.00%
Elapsed time = 0.17 sec. (111.59 ticks, tree = 0.01 MB, solutions = 4)

Clique cuts applied:  463
Cover cuts applied:  1
Implied bound cuts applied:  2

Root node processing (before b&c):
  Real time             =    0.17 sec. (111.75 ticks)
Parallel b&c, 4 threads:
  Real time             =    0.00 sec. (0.00 ticks)
  Sync time (average)   =    0.00 sec.
  Wait time (average)   =    0.00 sec.
                          ------------
Total (root+branch&cut) =    0.17 sec. (111.75 ticks)
